Results/Experiment 1 Results/Existing Benchmark/RES_40/i-40-100-12.txt
solutions: 1 nodes: 2  modelTime: 134  solveTime: 19  totalTime: 159  modelSize: 7389  readTime: 6 matchingSize: 20
