Results/Experiment 2 Results/Existing Benchmark/i-40-100-12.lp
clingo version 5.4.0
Reading from tempSRTISolver.lp ...
Solving...
Answer: 1
matched(13,2) matched(28,3) matched(25,4) matched(37,5) matched(39,6) matched(35,7) matched(29,8) matched(36,9) matched(21,10) matched(31,11) matched(14,12) matched(2,13) matched(12,14) matched(18,15) matched(24,16) matched(19,17) matched(15,18) matched(17,19) matched(34,20) matched(10,21) matched(30,22) matched(33,23) matched(16,24) matched(4,25) matched(32,26) matched(1,27) matched(3,28) matched(8,29) matched(22,30) matched(11,31) matched(26,32) matched(23,33) matched(20,34) matched(7,35) matched(9,36) matched(5,37) matched(40,38) matched(6,39) matched(38,40) matched(27,1)
Optimization: 222
OPTIMUM FOUND

Models       : 1
  Optimum    : yes
Optimization : 222
Calls        : 1
Time         : 1.273s (Solving: 0.07s 1st Model: 0.02s Unsat: 0.06s)
CPU Time     : 1.271s
